p cnf 160 536
-1 2 0
-3 2 0
-4 2 0
1 3 4 -2 0
-5 -2 0
-6 7 0
-8 7 0
-9 7 0
6 8 9 -7 0
-10 -7 0
-11 12 0
-13 12 0
-14 12 0
11 13 14 -12 0
-15 -12 0
-16 17 0
-18 17 0
-19 17 0
16 18 19 -17 0
-20 -17 0
-21 22 0
-23 22 0
-24 22 0
21 23 24 -22 0
-25 -22 0
-26 27 0
-28 27 0
-29 27 0
26 28 29 -27 0
-30 -27 0
-31 32 0
-33 32 0
-34 32 0
31 33 34 -32 0
-35 -32 0
-36 37 0
-38 37 0
-39 37 0
36 38 39 -37 0
-40 -37 0
-41 42 0
-43 42 0
-44 42 0
41 43 44 -42 0
-45 -42 0
-46 0
-47 0
-48 0
-49 0
-50 0
-51 0
-52 0
-53 0
-54 0
-55 0
-56 0
-57 0
-58 0
-59 0
-60 0
-61 0
-62 0
-43 63 0
-44 63 0
-45 63 0
41 63 0
43 44 45 -41 -63 0
-41 64 0
-43 64 0
-44 64 0
-45 64 0
41 43 44 45 -64 0
-36 65 0
-38 65 0
-39 65 0
-40 65 0
36 38 39 40 -65 0
-31 66 0
-33 66 0
-34 66 0
-35 66 0
31 33 34 35 -66 0
-26 67 0
-28 67 0
-29 67 0
-30 67 0
26 28 29 30 -67 0
-21 68 0
-23 68 0
-24 68 0
-25 68 0
21 23 24 25 -68 0
-16 69 0
-18 69 0
-19 69 0
-20 69 0
16 18 19 20 -69 0
-11 70 0
-13 70 0
-14 70 0
-15 70 0
11 13 14 15 -70 0
-8 71 0
-9 71 0
-10 71 0
6 71 0
8 9 10 -6 -71 0
-6 72 0
-8 72 0
-9 72 0
-10 72 0
6 8 9 10 -72 0
-1 73 0
-3 73 0
-4 73 0
5 73 0
1 3 4 -5 -73 0
-5 74 0
1 74 0
3 74 0
4 74 0
5 -1 -3 -4 -74 0
-1 75 0
-5 75 0
3 75 0
4 75 0
1 5 -3 -4 -75 0
-3 76 0
-5 76 0
1 76 0
4 76 0
3 5 -1 -4 -76 0
-1 77 0
-3 77 0
-5 77 0
4 77 0
1 3 5 -4 -77 0
-4 78 0
-5 78 0
1 78 0
3 78 0
4 5 -1 -3 -78 0
-1 79 0
-4 79 0
-5 79 0
3 79 0
1 4 5 -3 -79 0
-1 -3 -63 -64 -65 -66 -67 -68 -69 -70 -71 -72 -73 -74 -75 -76 -77 -78 -79 0
-3 -63 -64 -65 -66 -67 -68 -69 -70 -71 -72 -73 -74 -75 -76 -77 -78 -79 0
-3 -4 -63 -64 -65 -66 -67 -68 -69 -70 -71 -72 -73 -74 -75 -76 -77 -78 -79 0
-5 -3 -63 -64 -65 -66 -67 -68 -69 -70 -71 -72 -73 -74 -75 -76 -77 -78 -79 0
-1 -4 -63 -64 -65 -66 -67 -68 -69 -70 -71 -72 -73 -74 -75 -76 -77 -78 -79 0
-4 -63 -64 -65 -66 -67 -68 -69 -70 -71 -72 -73 -74 -75 -76 -77 -78 -79 0
-5 -4 -63 -64 -65 -66 -67 -68 -69 -70 -71 -72 -73 -74 -75 -76 -77 -78 -79 0
-5 -1 -63 -64 -65 -66 -67 -68 -69 -70 -71 -72 -73 -74 -75 -76 -77 -78 -79 0
-5 -63 -64 -65 -66 -67 -68 -69 -70 -71 -72 -73 -74 -75 -76 -77 -78 -79 0
1 -3 -63 -64 -65 -66 -67 -68 -69 -70 -71 -72 -73 -74 -75 -76 -77 -78 -79 0
1 -4 -63 -64 -65 -66 -67 -68 -69 -70 -71 -72 -73 -74 -75 -76 -77 -78 -79 0
1 -5 -63 -64 -65 -66 -67 -68 -69 -70 -71 -72 -73 -74 -75 -76 -77 -78 -79 0
-44 80 0
-45 80 0
41 80 0
43 80 0
44 45 -41 -43 -80 0
-41 81 0
-44 81 0
-45 81 0
43 81 0
41 44 45 -43 -81 0
-36 82 0
-39 82 0
-40 82 0
38 82 0
36 39 40 -38 -82 0
-38 83 0
-39 83 0
-40 83 0
36 83 0
38 39 40 -36 -83 0
-31 84 0
-34 84 0
-35 84 0
33 84 0
31 34 35 -33 -84 0
-33 85 0
-34 85 0
-35 85 0
31 85 0
33 34 35 -31 -85 0
-28 86 0
-29 86 0
-30 86 0
26 86 0
28 29 30 -26 -86 0
-23 87 0
-24 87 0
-25 87 0
21 87 0
23 24 25 -21 -87 0
-18 88 0
-19 88 0
-20 88 0
16 88 0
18 19 20 -16 -88 0
-11 89 0
-14 89 0
-15 89 0
13 89 0
11 14 15 -13 -89 0
-6 -13 -80 -81 -82 -83 -84 -85 -86 -87 -88 -89 0
-9 -13 -80 -81 -82 -83 -84 -85 -86 -87 -88 -89 0
-10 -13 -80 -81 -82 -83 -84 -85 -86 -87 -88 -89 0
8 -13 -80 -81 -82 -83 -84 -85 -86 -87 -88 -89 0
-6 -14 -80 -81 -82 -83 -84 -85 -86 -87 -88 -89 0
-9 -14 -80 -81 -82 -83 -84 -85 -86 -87 -88 -89 0
-10 -14 -80 -81 -82 -83 -84 -85 -86 -87 -88 -89 0
8 -14 -80 -81 -82 -83 -84 -85 -86 -87 -88 -89 0
-15 -6 -80 -81 -82 -83 -84 -85 -86 -87 -88 -89 0
-15 -9 -80 -81 -82 -83 -84 -85 -86 -87 -88 -89 0
-10 -15 -80 -81 -82 -83 -84 -85 -86 -87 -88 -89 0
8 -15 -80 -81 -82 -83 -84 -85 -86 -87 -88 -89 0
11 -6 -80 -81 -82 -83 -84 -85 -86 -87 -88 -89 0
11 -9 -80 -81 -82 -83 -84 -85 -86 -87 -88 -89 0
-10 11 -80 -81 -82 -83 -84 -85 -86 -87 -88 -89 0
8 11 -80 -81 -82 -83 -84 -85 -86 -87 -88 -89 0
-16 90 0
-18 90 0
-20 90 0
19 90 0
16 18 20 -19 -90 0
-11 91 0
-13 91 0
-15 91 0
14 91 0
11 13 15 -14 -91 0
-8 92 0
-10 92 0
6 92 0
9 92 0
8 10 -6 -9 -92 0
-6 -9 -90 -91 -92 0
-10 -6 -90 -91 -92 0
8 -6 -90 -91 -92 0
-8 -9 -90 -91 -92 0
-10 -8 -90 -91 -92 0
6 -8 -90 -91 -92 0
-10 -9 -90 -91 -92 0
-10 -90 -91 -92 0
6 -10 -90 -91 -92 0
8 -10 -90 -91 -92 0
9 -10 -90 -91 -92 0
6 9 -90 -91 -92 0
8 9 -90 -91 -92 0
-34 93 0
-35 93 0
31 93 0
33 93 0
34 35 -31 -33 -93 0
-29 94 0
-30 94 0
26 94 0
28 94 0
29 30 -26 -28 -94 0
-26 95 0
-29 95 0
-30 95 0
28 95 0
26 29 30 -28 -95 0
-21 96 0
-24 96 0
-25 96 0
23 96 0
21 24 25 -23 -96 0
-19 97 0
-20 97 0
16 97 0
18 97 0
19 20 -16 -18 -97 0
-14 -16 -93 -94 -95 -96 -97 0
-15 -16 -93 -94 -95 -96 -97 0
11 -16 -93 -94 -95 -96 -97 0
13 -16 -93 -94 -95 -96 -97 0
-14 -19 -93 -94 -95 -96 -97 0
-15 -19 -93 -94 -95 -96 -97 0
11 -19 -93 -94 -95 -96 -97 0
13 -19 -93 -94 -95 -96 -97 0
-20 -14 -93 -94 -95 -96 -97 0
-15 -20 -93 -94 -95 -96 -97 0
11 -20 -93 -94 -95 -96 -97 0
13 -20 -93 -94 -95 -96 -97 0
18 -14 -93 -94 -95 -96 -97 0
-15 18 -93 -94 -95 -96 -97 0
11 18 -93 -94 -95 -96 -97 0
13 18 -93 -94 -95 -96 -97 0
-41 98 0
-43 98 0
-45 98 0
44 98 0
41 43 45 -44 -98 0
-38 99 0
-40 99 0
36 99 0
39 99 0
38 40 -36 -39 -99 0
-36 -39 -98 -99 0
-40 -36 -98 -99 0
38 -36 -98 -99 0
-38 -39 -98 -99 0
-40 -38 -98 -99 0
36 -38 -98 -99 0
-40 -39 -98 -99 0
-40 -98 -99 0
36 -40 -98 -99 0
38 -40 -98 -99 0
39 -40 -98 -99 0
36 39 -98 -99 0
38 39 -98 -99 0
-31 100 0
-33 100 0
-35 100 0
34 100 0
31 33 35 -34 -100 0
-26 101 0
-28 101 0
-30 101 0
29 101 0
26 28 30 -29 -101 0
-23 102 0
-25 102 0
21 102 0
24 102 0
23 25 -21 -24 -102 0
-21 -24 -100 -101 -102 0
-25 -21 -100 -101 -102 0
23 -21 -100 -101 -102 0
-23 -24 -100 -101 -102 0
-25 -23 -100 -101 -102 0
21 -23 -100 -101 -102 0
-25 -24 -100 -101 -102 0
-25 -100 -101 -102 0
21 -25 -100 -101 -102 0
23 -25 -100 -101 -102 0
24 -25 -100 -101 -102 0
21 24 -100 -101 -102 0
23 24 -100 -101 -102 0
-33 103 0
-35 103 0
31 103 0
34 103 0
33 35 -31 -34 -103 0
-26 104 0
-30 104 0
28 104 0
29 104 0
26 30 -28 -29 -104 0
-28 105 0
-30 105 0
26 105 0
29 105 0
28 30 -26 -29 -105 0
-25 106 0
21 106 0
23 106 0
24 106 0
25 -21 -23 -24 -106 0
-21 107 0
-25 107 0
23 107 0
24 107 0
21 25 -23 -24 -107 0
-16 -18 -103 -104 -105 -106 -107 0
-20 -16 -103 -104 -105 -106 -107 0
19 -16 -103 -104 -105 -106 -107 0
-20 -18 -103 -104 -105 -106 -107 0
-20 -103 -104 -105 -106 -107 0
16 -20 -103 -104 -105 -106 -107 0
19 -20 -103 -104 -105 -106 -107 0
18 -20 -103 -104 -105 -106 -107 0
16 18 -103 -104 -105 -106 -107 0
18 19 -103 -104 -105 -106 -107 0
19 -18 -103 -104 -105 -106 -107 0
16 19 -103 -104 -105 -106 -107 0
19 -103 -104 -105 -106 -107 0
-41 108 0
-45 108 0
43 108 0
44 108 0
41 45 -43 -44 -108 0
-43 109 0
-45 109 0
41 109 0
44 109 0
43 45 -41 -44 -109 0
-40 110 0
36 110 0
38 110 0
39 110 0
40 -36 -38 -39 -110 0
-31 -36 -108 -109 -110 0
-35 -36 -108 -109 -110 0
33 -36 -108 -109 -110 0
34 -36 -108 -109 -110 0
-40 -31 -108 -109 -110 0
-35 -40 -108 -109 -110 0
33 -40 -108 -109 -110 0
34 -40 -108 -109 -110 0
38 -31 -108 -109 -110 0
-35 38 -108 -109 -110 0
33 38 -108 -109 -110 0
34 38 -108 -109 -110 0
39 -31 -108 -109 -110 0
-35 39 -108 -109 -110 0
33 39 -108 -109 -110 0
34 39 -108 -109 -110 0
-41 111 0
-43 111 0
-44 111 0
45 111 0
41 43 44 -45 -111 0
-45 112 0
41 112 0
43 112 0
44 112 0
45 -41 -43 -44 -112 0
-36 113 0
-38 113 0
-39 113 0
40 113 0
36 38 39 -40 -113 0
-31 114 0
-33 114 0
-34 114 0
35 114 0
31 33 34 -35 -114 0
-35 115 0
31 115 0
33 115 0
34 115 0
35 -31 -33 -34 -115 0
-26 116 0
-28 116 0
-29 116 0
30 116 0
26 28 29 -30 -116 0
-30 117 0
26 117 0
28 117 0
29 117 0
30 -26 -28 -29 -117 0
-21 118 0
-23 118 0
-24 118 0
25 118 0
21 23 24 -25 -118 0
-16 119 0
-18 119 0
-19 119 0
20 119 0
16 18 19 -20 -119 0
-20 120 0
16 120 0
18 120 0
19 120 0
20 -16 -18 -19 -120 0
-11 121 0
-13 121 0
-14 121 0
15 121 0
11 13 14 -15 -121 0
-15 122 0
11 122 0
13 122 0
14 122 0
15 -11 -13 -14 -122 0
-11 123 0
-15 123 0
13 123 0
14 123 0
11 15 -13 -14 -123 0
-13 124 0
-15 124 0
11 124 0
14 124 0
13 15 -11 -14 -124 0
-6 125 0
-8 125 0
-9 125 0
10 125 0
6 8 9 -10 -125 0
-10 -6 -111 -112 -113 -114 -115 -116 -117 -118 -119 -120 -121 -122 -123 -124 -125 0
-10 -111 -112 -113 -114 -115 -116 -117 -118 -119 -120 -121 -122 -123 -124 -125 0
8 -10 -111 -112 -113 -114 -115 -116 -117 -118 -119 -120 -121 -122 -123 -124 -125 0
9 -10 -111 -112 -113 -114 -115 -116 -117 -118 -119 -120 -121 -122 -123 -124 -125 0
6 -10 -111 -112 -113 -114 -115 -116 -117 -118 -119 -120 -121 -122 -123 -124 -125 0
6 8 -111 -112 -113 -114 -115 -116 -117 -118 -119 -120 -121 -122 -123 -124 -125 0
6 9 -111 -112 -113 -114 -115 -116 -117 -118 -119 -120 -121 -122 -123 -124 -125 0
8 -6 -111 -112 -113 -114 -115 -116 -117 -118 -119 -120 -121 -122 -123 -124 -125 0
8 -111 -112 -113 -114 -115 -116 -117 -118 -119 -120 -121 -122 -123 -124 -125 0
8 9 -111 -112 -113 -114 -115 -116 -117 -118 -119 -120 -121 -122 -123 -124 -125 0
9 -6 -111 -112 -113 -114 -115 -116 -117 -118 -119 -120 -121 -122 -123 -124 -125 0
9 -111 -112 -113 -114 -115 -116 -117 -118 -119 -120 -121 -122 -123 -124 -125 0
-126 0
-127 0
-128 0
-129 0
-130 0
-131 0
-132 0
-133 0
-134 0
-135 0
-136 0
-137 0
-138 0
-139 0
-140 0
-141 0
-142 0
-143 0
-144 0
-145 0
-146 0
-147 0
-148 0
-149 0
-150 0
-151 0
-152 0
-153 0
-154 0
-155 0
-156 0
-157 0
-158 0
-159 0
-160 0
c 1 k!0
c 3 k!1
c 4 k!2
c 5 k!3
c 6 k!4
c 8 k!5
c 9 k!6
c 10 k!7
c 11 k!8
c 13 k!9
c 14 k!10
c 15 k!11
c 16 k!12
c 18 k!13
c 19 k!14
c 20 k!15
c 21 k!16
c 23 k!17
c 24 k!18
c 25 k!19
c 26 k!20
c 28 k!21
c 29 k!22
c 30 k!23
c 31 k!24
c 33 k!25
c 34 k!26
c 35 k!27
c 36 k!28
c 38 k!29
c 39 k!30
c 40 k!31
c 41 k!32
c 43 k!33
c 44 k!34
c 45 k!35
c 7 k!64
c 12 k!65
c 17 k!66
c 22 k!67
c 27 k!68
c 32 k!69
c 37 k!70
c 42 k!71
c 63 k!72
c 46 =
c 126 =
c 127 =
c 128 =
c 129 =
c 130 =
c 131 =
c 132 =
c 133 =
c 134 =
c 135 =
c 136 =
c 137 =
c 138 =
c 139 =
c 140 =
c 141 =
c 142 =
c 143 =
c 144 =
c 145 =
c 146 =
c 147 =
c 148 =
c 149 =
c 150 =
c 151 =
c 152 =
c 153 =
c 154 =
c 155 =
c 156 =
c 157 =
c 158 =
c 159 =
c 160 =
c 2 k!63
c 47 =
c 48 =
c 49 =
c 50 =
c 51 =
c 52 =
c 53 =
c 54 =
c 55 =
c 56 =
c 57 =
c 58 =
c 59 =
c 60 =
c 61 =
c 62 =
c 64 k!73
c 65 k!74
c 66 k!75
c 67 k!76
c 68 k!77
c 69 k!78
c 70 k!79
c 71 k!80
c 72 k!81
c 73 k!82
c 74 k!83
c 75 k!84
c 76 k!85
c 77 k!86
c 78 k!87
c 79 k!88
c 80 k!89
c 81 k!90
c 82 k!91
c 83 k!92
c 84 k!93
c 85 k!94
c 86 k!95
c 87 k!96
c 88 k!97
c 89 k!98
c 90 k!99
c 91 k!100
c 92 k!101
c 93 k!102
c 94 k!103
c 95 k!104
c 96 k!105
c 97 k!106
c 98 k!107
c 99 k!108
c 100 k!109
c 101 k!110
c 102 k!111
c 103 k!112
c 104 k!113
c 105 k!114
c 106 k!115
c 107 k!116
c 108 k!117
c 109 k!118
c 110 k!119
c 111 k!120
c 112 k!121
c 113 k!122
c 114 k!123
c 115 k!124
c 116 k!125
c 117 k!126
c 118 k!127
c 119 k!128
c 120 k!129
c 121 k!130
c 122 k!131
c 123 k!132
c 124 k!133
c 125 k!134